WARNING: for repeatability, setting FPU to use double precision
============================[ Problem Statistics ]=============================
|                                                                             |
|  Number of variables:           100                                         |
|  Number of clauses:             449                                         |
|  Parse time:                   0.00 s                                       |
|  Simplification time:          0.00 s                                       |
|                                                                             |
============================[ Search Statistics ]==============================
| Conflicts |          ORIGINAL         |          LEARNT          | Progress |
|           |    Vars  Clauses Literals |    Limit  Clauses Lit/Cl |          |
===============================================================================
|       100 |     100      449     1347 |      164      100      7 |  0.010 % |
===============================================================================
restarts              : 3
conflicts             : 216            (70473 /sec)
decisions             : 283            (0.00 % random) (92333 /sec)
propagations          : 5320           (1735726 /sec)
conflict literals     : 1435           (19.74 % deleted)
Memory used           : 13.00 MB
CPU time              : 0.003065 s

SATISFIABLE
